
Gurobi 8.1.1 (mac64) logging started Thu Oct 17 11:11:56 2019

Academic license - for non-commercial use only

Gurobi Optimizer version 8.1.1 build v8.1.1rc0 (mac64)
Copyright (c) 2019, Gurobi Optimization, LLC

Read LP format model from file wormhole_78e468b6-ad4c-4591-bc06-a9aa82f0fb75.lp
Reading time = 0.00 seconds
obj: 67 rows, 39 columns, 154 nonzeros
Optimize a model with 67 rows, 39 columns and 154 nonzeros
Variable types: 0 continuous, 39 integer (39 binary)
Coefficient statistics:
  Matrix range     [1e+00, 1e+00]
  Objective range  [2e+00, 2e+00]
  Bounds range     [1e+00, 1e+00]
  RHS range        [1e+00, 1e+00]
Found heuristic solution: objective 18.0000000
Found heuristic solution: objective 12.0000000
Presolve removed 37 rows and 12 columns
Presolve time: 0.00s
Presolved: 30 rows, 27 columns, 77 nonzeros
Variable types: 0 continuous, 27 integer (27 binary)

Root relaxation: objective 9.073171e+00, 26 iterations, 0.00 seconds

    Nodes    |    Current Node    |     Objective Bounds      |     Work
 Expl Unexpl |  Obj  Depth IntInf | Incumbent    BestBd   Gap | It/Node Time

*    0     0               0      10.0000000   10.00000  0.00%     -    0s

Explored 0 nodes (30 simplex iterations) in 0.01 seconds
Thread count was 4 (of 4 available processors)

Solution count 3: 10 12 18 

Optimal solution found (tolerance 1.00e-04)
Best objective 1.000000000000e+01, best bound 1.000000000000e+01, gap 0.0000%

Wrote result file 'ab186929-f89b-4320-9eb1-cd596f86747b.sol'


Gurobi 8.1.1 (mac64) logging started Thu Oct 17 11:12:34 2019

Academic license - for non-commercial use only

Gurobi Optimizer version 8.1.1 build v8.1.1rc0 (mac64)
Copyright (c) 2019, Gurobi Optimization, LLC

Read LP format model from file wormhole_662f5267-0136-4ff2-9e17-2d50e9b8677f.lp
Reading time = 0.00 seconds
obj: 67 rows, 39 columns, 154 nonzeros
Optimize a model with 67 rows, 39 columns and 154 nonzeros
Variable types: 0 continuous, 39 integer (39 binary)
Coefficient statistics:
  Matrix range     [1e+00, 1e+00]
  Objective range  [2e+00, 2e+00]
  Bounds range     [1e+00, 1e+00]
  RHS range        [1e+00, 1e+00]
Found heuristic solution: objective 18.0000000
Found heuristic solution: objective 12.0000000
Presolve removed 37 rows and 12 columns
Presolve time: 0.00s
Presolved: 30 rows, 27 columns, 77 nonzeros
Variable types: 0 continuous, 27 integer (27 binary)

Root relaxation: objective 9.073171e+00, 26 iterations, 0.00 seconds

    Nodes    |    Current Node    |     Objective Bounds      |     Work
 Expl Unexpl |  Obj  Depth IntInf | Incumbent    BestBd   Gap | It/Node Time

*    0     0               0      10.0000000   10.00000  0.00%     -    0s

Explored 0 nodes (31 simplex iterations) in 0.00 seconds
Thread count was 4 (of 4 available processors)

Solution count 3: 10 12 18 

Optimal solution found (tolerance 1.00e-04)
Best objective 1.000000000000e+01, best bound 1.000000000000e+01, gap 0.0000%

Wrote result file '4304da69-1e47-4038-86a2-1cdc8007eaac.sol'

